NAME : single
TYPE : ATSP
DIMENSION : 5
EDGE_WEIGHT_TYPE : EXPLICIT
EDGE_WEIGHT_FORMAT : FULL_MATRIX
EDGE_WEIGHT_SECTION
0 50261 50097 50223 98 
0 0 398 224 50000 
0 398 0 317 50000 
0 224 317 0 50000 
0 50000 50000 50000 0 
EOF